NiO-AFM
4.170000
   1.00000000000000   0.50000000000000   0.50000000000000
   0.50000000000000   1.00000000000000   0.50000000000000
   0.50000000000000   0.50000000000000   1.00000000000000
Ni O
2  2 
Cartesian
   0.00000000000000   0.00000000000000   0.00000000000000 
   1.00000000000000   1.00000000000000   1.00000000000000 
   0.50000000000000   0.50000000000000   0.50000000000000 
   1.50000000000000   1.50000000000000   1.50000000000000
