System = SrVO3PREF   = AccurateEDIFF  = 1E-8ALGO   = FastISMEAR = 0