Ce
4.72
   0.00000000000000   0.50000000000000   0.50000000000000
   0.50000000000000   0.00000000000000   0.50000000000000
   0.50000000000000   0.50000000000000   0.00000000000000
Ce 
1 
Direct 
   0.00000000000000   0.00000000000000   0.00000000000000   
