Ni
3.5
   0.00000000000000   0.50000000000000   0.50000000000000
   0.50000000000000   0.00000000000000   0.50000000000000
   0.50000000000000   0.50000000000000   0.00000000000000
Ni 
1 
Direct
   0.00000000000000   0.00000000000000   0.00000000000000
