FeSe
1.000000
   3.68890500000000   0.00000000000000   0.00000000000000
   0.00000000000000   3.68890500000000   0.00000000000000
   0.00000000000000   0.00000000000000   5.85419400000000
Fe Se 
2 2 
Direct 
   0.00000000000000   0.00000000000000   0.00000000000000    
   0.50000000000000   0.50000000000000   0.00000000000000    
   0.00000000000000   0.50000000000000   0.76481500000000    
   0.50000000000000   0.00000000000000   0.23518500000000    
