NiO-AFM                                 
   4.17000000000000     
     1.0000000000000000    0.5000000000000000    0.5000000000000000
     0.5000000000000000    1.0000000000000000    0.5000000000000000
     0.5000000000000000    0.5000000000000000    1.0000000000000000
   Ni   O 
     2     2
Direct
  0.0000000000000000  0.0000000000000000  0.0000000000000000
  0.5000000000000000  0.5000000000000000  0.5000000000000000
  0.2500000000000000  0.2500000000000000  0.2500000000000000
  0.7500000000000000  0.7500000000000000  0.7500000000000000
 
  0.00000000E+00  0.00000000E+00  0.00000000E+00
  0.00000000E+00  0.00000000E+00  0.00000000E+00
  0.00000000E+00  0.00000000E+00  0.00000000E+00
  0.00000000E+00  0.00000000E+00  0.00000000E+00
