System   = NiO 
PREF     = Accurate 
EDIFF    = 1E-8 
ALGO     = Normal 
LASPH    = .TRUE. 
ISMEAR   = -5 
KSPACING = 0.4 
MAGMOM   = 2.0 -2.0 0.0 0.0 
ISYM     = 2 
ISPIN    = 2 
LSORBIT  = .FALSE. 
LOCPROJ  = 1 : d : Pr 
LOCPROJ  = 2 : d : Pr 
