System   = Ce 
PREF     = Accurate 
EDIFF    = 1E-8 
ALGO     = Normal 
LASPH    = .TRUE. 
ISMEAR   = 2 
KSPACING = 0.2 
ISYM     = 2 
ISPIN    = 1 
LSORBIT  = .TRUE. 
LOCPROJ  = 1 : f : Pr 
