NiO                                     
           1
     0.000000    2.085000    2.085000
     2.085000    0.000000    2.085000
     2.085000    2.085000    0.000000
   Ni   O 
     1     1
Direct
   0.00000000  0.00000000  0.00000000
   0.50000000  0.50000000  0.50000000
